NAME : grid-15 
COMMENT : 15 x 15 locations auto generated
TYPE : TSP
DIMENSION : 225
EDGE_WEIGHT_TYPE : EUC_2D
NODE_COORD_SECTION
1 0000 0000
2 0000 0001
3 0000 0002
4 0000 0003
5 0000 0004
6 0000 0005
7 0000 0006
8 0000 0007
9 0000 0008
10 0000 0009
11 0000 0010
12 0000 0011
13 0000 0012
14 0000 0013
15 0000 0014
16 0001 0000
17 0001 0001
18 0001 0002
19 0001 0003
20 0001 0004
21 0001 0005
22 0001 0006
23 0001 0007
24 0001 0008
25 0001 0009
26 0001 0010
27 0001 0011
28 0001 0012
29 0001 0013
30 0001 0014
31 0002 0000
32 0002 0001
33 0002 0002
34 0002 0003
35 0002 0004
36 0002 0005
37 0002 0006
38 0002 0007
39 0002 0008
40 0002 0009
41 0002 0010
42 0002 0011
43 0002 0012
44 0002 0013
45 0002 0014
46 0003 0000
47 0003 0001
48 0003 0002
49 0003 0003
50 0003 0004
51 0003 0005
52 0003 0006
53 0003 0007
54 0003 0008
55 0003 0009
56 0003 0010
57 0003 0011
58 0003 0012
59 0003 0013
60 0003 0014
61 0004 0000
62 0004 0001
63 0004 0002
64 0004 0003
65 0004 0004
66 0004 0005
67 0004 0006
68 0004 0007
69 0004 0008
70 0004 0009
71 0004 0010
72 0004 0011
73 0004 0012
74 0004 0013
75 0004 0014
76 0005 0000
77 0005 0001
78 0005 0002
79 0005 0003
80 0005 0004
81 0005 0005
82 0005 0006
83 0005 0007
84 0005 0008
85 0005 0009
86 0005 0010
87 0005 0011
88 0005 0012
89 0005 0013
90 0005 0014
91 0006 0000
92 0006 0001
93 0006 0002
94 0006 0003
95 0006 0004
96 0006 0005
97 0006 0006
98 0006 0007
99 0006 0008
100 0006 0009
101 0006 0010
102 0006 0011
103 0006 0012
104 0006 0013
105 0006 0014
106 0007 0000
107 0007 0001
108 0007 0002
109 0007 0003
110 0007 0004
111 0007 0005
112 0007 0006
113 0007 0007
114 0007 0008
115 0007 0009
116 0007 0010
117 0007 0011
118 0007 0012
119 0007 0013
120 0007 0014
121 0008 0000
122 0008 0001
123 0008 0002
124 0008 0003
125 0008 0004
126 0008 0005
127 0008 0006
128 0008 0007
129 0008 0008
130 0008 0009
131 0008 0010
132 0008 0011
133 0008 0012
134 0008 0013
135 0008 0014
136 0009 0000
137 0009 0001
138 0009 0002
139 0009 0003
140 0009 0004
141 0009 0005
142 0009 0006
143 0009 0007
144 0009 0008
145 0009 0009
146 0009 0010
147 0009 0011
148 0009 0012
149 0009 0013
150 0009 0014
151 0010 0000
152 0010 0001
153 0010 0002
154 0010 0003
155 0010 0004
156 0010 0005
157 0010 0006
158 0010 0007
159 0010 0008
160 0010 0009
161 0010 0010
162 0010 0011
163 0010 0012
164 0010 0013
165 0010 0014
166 0011 0000
167 0011 0001
168 0011 0002
169 0011 0003
170 0011 0004
171 0011 0005
172 0011 0006
173 0011 0007
174 0011 0008
175 0011 0009
176 0011 0010
177 0011 0011
178 0011 0012
179 0011 0013
180 0011 0014
181 0012 0000
182 0012 0001
183 0012 0002
184 0012 0003
185 0012 0004
186 0012 0005
187 0012 0006
188 0012 0007
189 0012 0008
190 0012 0009
191 0012 0010
192 0012 0011
193 0012 0012
194 0012 0013
195 0012 0014
196 0013 0000
197 0013 0001
198 0013 0002
199 0013 0003
200 0013 0004
201 0013 0005
202 0013 0006
203 0013 0007
204 0013 0008
205 0013 0009
206 0013 0010
207 0013 0011
208 0013 0012
209 0013 0013
210 0013 0014
211 0014 0000
212 0014 0001
213 0014 0002
214 0014 0003
215 0014 0004
216 0014 0005
217 0014 0006
218 0014 0007
219 0014 0008
220 0014 0009
221 0014 0010
222 0014 0011
223 0014 0012
224 0014 0013
225 0014 0014
